\ENCODING=ISO-8859-1
\Problem name: ilog.cplex

Maximize
 obj: 4 x(A2)(R0)#0 + 3 x(A2)(R2)#2 + x(A2)(R3)#3 + x13#12
Subject To
 C1: x(A2)(R0)#0 + x(A0)(R0)#4 + x(A1)(R0)#8  = 1
 C1: x(A2)(R1)#1 + x(A0)(R1)#5 + x(A1)(R1)#9  = 1
 C1: x(A2)(R2)#2 + x(A0)(R2)#6 + x(A1)(R2)#10  = 1
 C1: x(A2)(R3)#3 + x(A0)(R3)#7 + x(A1)(R3)#11  = 1
 C2: x(A0)(R0)#4  = 0
 C2: x(A1)(R0)#8  = 0
 C2: x(A0)(R1)#5  = 0
 C2: x(A2)(R1)#1  = 0
 C2: x(A0)(R2)#6  = 0
 C2: x(A1)(R2)#10  = 0
 C2: x(A1)(R3)#11  = 0
 C2: x(A2)(R3)#3  = 0
Bounds
 0 <= x(A2)(R0)#0 <= 1
 0 <= x(A2)(R1)#1 <= 1
 0 <= x(A2)(R2)#2 <= 1
 0 <= x(A2)(R3)#3 <= 1
 0 <= x(A0)(R0)#4 <= 1
 0 <= x(A0)(R1)#5 <= 1
 0 <= x(A0)(R2)#6 <= 1
 0 <= x(A0)(R3)#7 <= 1
 0 <= x(A1)(R0)#8 <= 1
 0 <= x(A1)(R1)#9 <= 1
 0 <= x(A1)(R2)#10 <= 1
 0 <= x(A1)(R3)#11 <= 1
      x13#12 = -3
Binaries
 x(A2)(R0)#0  x(A2)(R1)#1  x(A2)(R2)#2  x(A2)(R3)#3  x(A0)(R0)#4  x(A0)(R1)#5 
 x(A0)(R2)#6  x(A0)(R3)#7  x(A1)(R0)#8  x(A1)(R1)#9  x(A1)(R2)#10 
 x(A1)(R3)#11 
End
